Instance: Data/Instances_txt/inst_100_10_1.txt
SetUpTime: 14.4359290599823

Gurobi 10.0.1 (mac64[x86]) logging started Di  1 Aug 16:43:55 2023

Set parameter LogFile to value "Output/MILP_inst_100_10_1_2023-08-01_16-28-50.txt"
Set parameter TimeLimit to value 2700

Gurobi 10.0.1 (mac64[x86]) logging started Di  1 Aug 16:43:55 2023

Set parameter LogFile to value "Output/MILP_inst_100_10_1_2023-08-01_16-28-50.txt"
Gurobi Optimizer version 10.0.1 build v10.0.1rc0 (mac64[x86])

CPU model: Intel(R) Core(TM) i5-1038NG7 CPU @ 2.00GHz
Thread count: 4 physical cores, 8 logical processors, using up to 8 threads

Optimize a model with 201 rows, 22944 columns and 108117 nonzeros
Model fingerprint: 0x802a9491
Variable types: 0 continuous, 22944 integer (0 binary)
Coefficient statistics:
  Matrix range     [1e+00, 1e+00]
  Objective range  [8e+00, 1e+04]
  Bounds range     [1e+00, 1e+00]
  RHS range        [1e+00, 1e+00]
Presolve removed 7 rows and 607 columns
Presolve time: 0.22s
Presolved: 194 rows, 22337 columns, 103368 nonzeros
Variable types: 0 continuous, 22337 integer (22337 binary)

Root relaxation: objective 1.005483e+05, 3079 iterations, 0.52 seconds (0.82 work units)

    Nodes    |    Current Node    |     Objective Bounds      |     Work
 Expl Unexpl |  Obj  Depth IntInf | Incumbent    BestBd   Gap | It/Node Time

     0     0 100548.330    0  122          - 100548.330      -     -    0s
H    0     0                    106967.00000 100548.330  6.00%     -    0s
H    0     0                    104203.00000 100548.330  3.51%     -    1s
H    0     0                    102544.00000 100548.330  1.95%     -    1s
     0     0 101109.333    0  131 102544.000 101109.333  1.40%     -    1s
     0     0 101109.333    0  123 102544.000 101109.333  1.40%     -    2s
H    0     0                    102480.00000 101109.333  1.34%     -    2s
H    0     0                    102247.00000 101109.333  1.11%     -    2s
     0     0 101109.333    0  127 102247.000 101109.333  1.11%     -    2s
     0     0 101109.333    0  122 102247.000 101109.333  1.11%     -    2s
     0     0 101109.333    0  123 102247.000 101109.333  1.11%     -    2s
     0     0 101109.333    0  116 102247.000 101109.333  1.11%     -    2s
     0     0 101109.333    0  113 102247.000 101109.333  1.11%     -    2s
     0     0 101109.333    0  113 102247.000 101109.333  1.11%     -    2s
     0     0 101109.333    0  126 102247.000 101109.333  1.11%     -    2s
     0     0 101109.333    0  126 102247.000 101109.333  1.11%     -    2s
     0     0 101109.333    0  124 102247.000 101109.333  1.11%     -    2s
     0     0 101109.333    0  126 102247.000 101109.333  1.11%     -    2s
     0     0 101109.333    0  125 102247.000 101109.333  1.11%     -    2s
H    0     0                    101914.00000 101109.333  0.79%     -    2s
H    0     0                    101535.00000 101109.333  0.42%     -    2s
     0     0 101115.925    0  136 101535.000 101115.925  0.41%     -    2s
     0     0 101118.503    0  132 101535.000 101118.503  0.41%     -    2s
     0     0 101120.026    0  129 101535.000 101120.026  0.41%     -    2s
     0     0 101121.672    0  134 101535.000 101121.672  0.41%     -    2s
     0     0 101123.750    0  126 101535.000 101123.750  0.41%     -    2s
     0     0 101127.428    0  137 101535.000 101127.428  0.40%     -    2s
     0     0 101133.198    0  123 101535.000 101133.198  0.40%     -    2s
     0     0 101136.484    0  135 101535.000 101136.484  0.39%     -    2s
     0     0 101137.801    0  136 101535.000 101137.801  0.39%     -    2s
     0     0 101139.346    0  132 101535.000 101139.346  0.39%     -    2s
     0     0 101141.861    0  126 101535.000 101141.861  0.39%     -    2s
     0     0 101142.708    0   93 101535.000 101142.708  0.39%     -    2s
     0     0 101143.250    0  127 101535.000 101143.250  0.39%     -    2s
     0     0 101143.275    0  130 101535.000 101143.275  0.39%     -    2s
     0     0 101341.708    0   90 101535.000 101341.708  0.19%     -    2s
     0     0 101341.708    0   95 101535.000 101341.708  0.19%     -    2s
     0     0 101341.708    0   89 101535.000 101341.708  0.19%     -    2s
     0     0 101341.708    0   89 101535.000 101341.708  0.19%     -    2s
     0     0 101341.708    0   90 101535.000 101341.708  0.19%     -    2s
     0     0 101341.708    0   83 101535.000 101341.708  0.19%     -    2s
     0     0 101341.708    0   87 101535.000 101341.708  0.19%     -    2s
     0     0 101391.833    0   59 101535.000 101391.833  0.14%     -    2s
     0     0 101392.542    0   64 101535.000 101392.542  0.14%     -    2s
     0     0 101392.667    0   55 101535.000 101392.667  0.14%     -    2s
H    0     0                    101519.00000 101392.667  0.12%     -    2s
     0     0 101394.667    0   91 101519.000 101394.667  0.12%     -    2s
     0     0 101394.667    0   52 101519.000 101394.667  0.12%     -    2s
     0     0 101394.667    0   97 101519.000 101394.667  0.12%     -    3s
     0     0 101394.667    0   85 101519.000 101394.667  0.12%     -    3s
     0     0 101394.667    0   82 101519.000 101394.667  0.12%     -    3s
     0     0 101394.667    0   86 101519.000 101394.667  0.12%     -    3s
     0     0 101396.583    0  105 101519.000 101396.583  0.12%     -    3s
     0     0 101396.750    0  108 101519.000 101396.750  0.12%     -    3s
     0     0 101396.750    0  107 101519.000 101396.750  0.12%     -    3s
     0     0 101430.400    0   82 101519.000 101430.400  0.09%     -    3s
     0     0 101430.913    0   94 101519.000 101430.913  0.09%     -    3s
     0     0 101478.000    0   24 101519.000 101478.000  0.04%     -    3s
*    0     0               0    101478.00000 101478.000  0.00%     -    3s

Cutting planes:
  Clique: 1
  MIR: 2
  Inf proof: 2
  Zero half: 15
  RLT: 19

Explored 1 nodes (9841 simplex iterations) in 3.09 seconds (3.02 work units)
Thread count was 8 (of 8 available processors)

Solution count 9: 101478 101519 101535 ... 106967

Optimal solution found (tolerance 1.00e-04)
Best objective 1.014780000000e+05, best bound 1.014780000000e+05, gap 0.0000%

User-callback calls 1191, time in user-callback 0.00 sec

=========================

OUTPUT STATISTICS
Relaxed: false
Time since start: 18.040045976638794
SetUpTime: 14.4359290599823
Objective value: 101478.0
Number of variables: 22944
Solving time: 3.5929629802703857
